p edge 40 90 15
v 5 2 4 5 9 24
v 4 8 13 29 33
v 3 12 26 38
v 1 16
v 2 22 25
v 2 36 39
v 2 18 31
v 3 17 30 37
v 6 6 10 11 27 28 35
v 2 14 32
v 3 15 21 34
v 1 40
v 2 19 20
v 2 3 7
v 2 1 23
e 1 17
e 1 18
e 1 31
e 2 17
e 2 22
e 2 35
e 3 4
e 3 9
e 3 12
e 3 14
e 3 21
e 3 27
e 3 39
e 3 40
e 4 21
e 4 33
e 5 6
e 5 10
e 5 12
e 5 14
e 5 19
e 5 20
e 5 21
e 5 24
e 6 19
e 6 28
e 6 39
e 7 8
e 7 28
e 8 9
e 8 13
e 8 25
e 8 27
e 8 28
e 8 31
e 8 35
e 9 11
e 9 29
e 9 39
e 10 11
e 10 21
e 10 24
e 10 29
e 10 30
e 10 33
e 11 23
e 11 31
e 11 39
e 12 25
e 12 27
e 12 34
e 13 15
e 13 27
e 13 30
e 13 32
e 14 15
e 14 17
e 14 36
e 15 22
e 15 28
e 15 29
e 15 30
e 16 17
e 17 23
e 17 32
e 17 37
e 18 33
e 18 35
e 19 22
e 19 29
e 20 32
e 21 34
e 21 40
e 22 29
e 22 35
e 23 34
e 23 35
e 23 38
e 25 27
e 25 40
e 26 40
e 27 35
e 28 35
e 28 40
e 29 31
e 30 34
e 31 37
e 33 37
e 33 38
e 36 40
